# Solution for model GasLib-40
# Objective value = 1.3458257863949068e+01
loadshed[innode_1] 0
loadshed[innode_2] 0
loadshed[innode_3] 0
loadshed[innode_4] 0
loadshed[innode_5] 0
loadshed[innode_6] 0
loadshed[innode_7] 0
loadshed[innode_8] 0
loadshed[source_1] -1.5228352314313476e-01
loadshed[source_2] 1.2385214303340497e-02
loadshed[source_3] 2.2502851452428452e-01
loadshed[sink_1] 0
loadshed[sink_2] 0
loadshed[sink_3] 0
loadshed[sink_4] 0
loadshed[sink_5] 0
loadshed[sink_6] 0
loadshed[sink_7] 0
loadshed[sink_8] 0
loadshed[sink_9] 0
loadshed[sink_10] 0
loadshed[sink_11] 0
loadshed[sink_12] 8.2292532161726784e-01
loadshed[sink_13] 0
loadshed[sink_14] 0
loadshed[sink_15] 0
loadshed[sink_16] 0
loadshed[sink_17] 0
loadshed[sink_18] 0
loadshed[sink_19] 0
loadshed[sink_20] 0
loadshed[sink_21] 0
loadshed[sink_22] 0
loadshed[sink_23] 0
loadshed[sink_24] 0
loadshed[sink_25] 0
loadshed[sink_26] 0
loadshed[sink_27] 0
loadshed[sink_28] 0
loadshed[sink_29] 0
flow[source_1,sink_3] 1.8216482225245460e+02
flow[innode_1,sink_16] 1.6354166666666970e+01
flow[innode_6,sink_13] -8.0362907420456722e+00
flow[sink_13,sink_14] -2.4390457408712340e+01
flow[sink_14,sink_10] -4.0744624075379008e+01
flow[sink_25,sink_26] 2.3185424213605503e+02
flow[sink_26,sink_9] 1.3098752737232857e+02
flow[sink_9,sink_18] 1.1463336070566190e+02
flow[sink_26,sink_4] 8.4512548097059721e+01
flow[sink_4,sink_20] 1.6354166666668277e+01
flow[sink_18,sink_6] 9.8279194038995229e+01
flow[sink_25,innode_8] -1.4945648891911821e+02
flow[sink_6,sink_7] 4.9216694038994774e+01
flow[sink_6,sink_22] 3.2708333333333641e+01
flow[sink_7,sink_24] 3.5604242136050935e+01
flow[sink_22,sink_1] 1.6354166666666970e+01
flow[sink_24,sink_21] 1.9250075469384267e+01
flow[sink_21,sink_12] 2.8959088027176
flow[sink_7,sink_5] -2.7417147637228965e+00
flow[sink_5,sink_17] -1.9095881430389682e+01
flow[sink_17,sink_4] -5.1804214763724985e+01
flow[sink_17,sink_8] 1.6354166666668334e+01
flow[sink_3,sink_23] 16.3541666666697
flow[sink_8,sink_20] 0
flow[sink_25,sink_20] 0
flow[sink_25,sink_15] -9.0715629141557486e+01
flow[sink_15,sink_29] -6.0042479545665628e+01
flow[sink_29,sink_28] 1.6354166666667879e+01
flow[sink_29,sink_2] 63.3814829292252
flow[sink_2,sink_15] 4.7027316262558529e+01
flow[sink_29,innode_7] -1.5613229580822536e+02
flow[innode_4,sink_19] 4.7629955649233288e+01
flow[sink_19,innode_3] 4.3825497473120471e+01
flow[innode_4,innode_5] 7.4885501759479638e+01
flow[sink_27,innode_5] -7.4885501759479638e+01
flow[sink_27,sink_19] 5.8531335092812967e+01
flow[sink_10,sink_11] 3.2708333333333641e+01
flow[sink_10,innode_2] -4.5981626602258842e+01
flow[sink_10,innode_3] -4.3825497473120471e+01
flow[innode_6,sink_25] 8.0362907420456722e+00
flow[sink_11,innode_1] 1.6354166666666970e+01
flow[sink_19,innode_2] 4.5981626602258842e+01
flow[source_3,innode_4] 1.2251545740871293e+02
flow[source_2,innode_7] 1.5613229580822536e+02
flow[sink_3,innode_8] 1.4945648891911821e+02
pressure[innode_1] 7.6501618950960278e+01
pressure[innode_2] 7.9083639134830861e+01
pressure[innode_3] 7.8986592533375870e+01
pressure[innode_4] 81.01325
pressure[innode_5] 8.0961739803165088e+01
pressure[innode_6] 7.4638205222186784e+01
pressure[innode_7] 81.01325
pressure[innode_8] 8.0404342588694490e+01
pressure[source_1] 81.01325
pressure[source_2] 81.01325
pressure[source_3] 81.01325
pressure[sink_1] 4.1595704162904667e+01
pressure[sink_2] 75.2317982417568
pressure[sink_3] 8.0404342588694490e+01
pressure[sink_4] 47.5637030156909
pressure[sink_5] 4.4161411608970710e+01
pressure[sink_6] 4.3696781773292038e+01
pressure[sink_7] 4.3021153878979476e+01
pressure[sink_8] 4.4966831551125637e+01
pressure[sink_9] 50.4689055262542
pressure[sink_10] 7.6653320258563824e+01
pressure[sink_11] 7.6501618950960278e+01
pressure[sink_12] 1.01325
pressure[sink_13] 7.4682507950058735e+01
pressure[sink_14] 7.4726156751199284e+01
pressure[sink_15] 75.0782644188131
pressure[sink_16] 75.4799691161426
pressure[sink_17] 4.5583916746539259e+01
pressure[sink_18] 4.6321128869748449e+01
pressure[sink_19] 7.9083639134830861e+01
pressure[sink_20] 4.6363885306299323e+01
pressure[sink_21] 2.0437728457130619e+00
pressure[sink_22] 4.2659473305259674e+01
pressure[sink_23] 80.2396245770347
pressure[sink_24] 2.2569495460833209e+00
pressure[sink_25] 7.4638205222186784e+01
pressure[sink_26] 5.8308847108989951e+01
pressure[sink_27] 8.0340328512090181e+01
pressure[sink_28] 7.6542040461078912e+01
pressure[sink_29] 7.6837322734696087e+01
interdiction[source_1,sink_3] 0
interdiction[innode_1,sink_16] 0
interdiction[innode_6,sink_13] 0
interdiction[sink_13,sink_14] 0
interdiction[sink_14,sink_10] 0
interdiction[sink_25,sink_26] 0
interdiction[sink_26,sink_9] 0
interdiction[sink_9,sink_18] 0
interdiction[sink_26,sink_4] 0
interdiction[sink_4,sink_20] 0
interdiction[sink_18,sink_6] 0
interdiction[sink_25,innode_8] 0
interdiction[sink_6,sink_7] 0
interdiction[sink_6,sink_22] 0
interdiction[sink_7,sink_24] 0
interdiction[sink_22,sink_1] 0
interdiction[sink_24,sink_21] 0
interdiction[sink_21,sink_12] 0
interdiction[sink_7,sink_5] 0
interdiction[sink_5,sink_17] 0
interdiction[sink_17,sink_4] 0
interdiction[sink_17,sink_8] 0
interdiction[sink_3,sink_23] 0
interdiction[sink_8,sink_20] 1
interdiction[sink_25,sink_20] 1
interdiction[sink_25,sink_15] 0
interdiction[sink_15,sink_29] 0
interdiction[sink_29,sink_28] 0
interdiction[sink_29,sink_2] 0
interdiction[sink_2,sink_15] 0
interdiction[sink_29,innode_7] 0
interdiction[innode_4,sink_19] 0
interdiction[sink_19,innode_3] 0
interdiction[innode_4,innode_5] 0
interdiction[sink_27,innode_5] 0
interdiction[sink_27,sink_19] 0
interdiction[sink_10,sink_11] 0
interdiction[sink_10,innode_2] 0
interdiction[sink_10,innode_3] 0
interdiction[innode_6,sink_25] 0
interdiction[sink_11,innode_1] 0
interdiction[sink_19,innode_2] 0
interdiction[source_3,innode_4] 0
interdiction[source_2,innode_7] 0
interdiction[sink_3,innode_8] 0
WCcheckFlow[source_1,sink_3] 39
WCcheckFlow[innode_1,sink_16] 1
WCcheckFlow[innode_6,sink_13] 13
WCcheckFlow[sink_13,sink_14] 12
WCcheckFlow[sink_14,sink_10] 11
WCcheckFlow[sink_25,sink_26] 15
WCcheckFlow[sink_26,sink_9] 12
WCcheckFlow[sink_9,sink_18] 11
WCcheckFlow[sink_26,sink_4] 2
WCcheckFlow[sink_4,sink_20] 1
WCcheckFlow[sink_18,sink_6] 10
WCcheckFlow[sink_25,innode_8] -36
WCcheckFlow[sink_6,sink_7] 7
WCcheckFlow[sink_6,sink_22] 2
WCcheckFlow[sink_7,sink_24] 3
WCcheckFlow[sink_22,sink_1] 1
WCcheckFlow[sink_24,sink_21] 2
WCcheckFlow[sink_21,sink_12] 1
WCcheckFlow[sink_7,sink_5] 3
WCcheckFlow[sink_5,sink_17] 2
WCcheckFlow[sink_17,sink_4] 0
WCcheckFlow[sink_17,sink_8] 1
WCcheckFlow[sink_3,sink_23] 1
WCcheckFlow[sink_8,sink_20] 0
WCcheckFlow[sink_25,sink_20] 0
WCcheckFlow[sink_25,sink_15] 6
WCcheckFlow[sink_15,sink_29] 5
WCcheckFlow[sink_29,sink_28] 1
WCcheckFlow[sink_29,sink_2] 1
WCcheckFlow[sink_2,sink_15] 0
WCcheckFlow[sink_29,innode_7] 2
WCcheckFlow[innode_4,sink_19] -4
WCcheckFlow[sink_19,innode_3] -5
WCcheckFlow[innode_4,innode_5] 2
WCcheckFlow[sink_27,innode_5] -1
WCcheckFlow[sink_27,sink_19] 0
WCcheckFlow[sink_10,sink_11] 3
WCcheckFlow[sink_10,innode_2] 1
WCcheckFlow[sink_10,innode_3] 6
WCcheckFlow[innode_6,sink_25] -14
WCcheckFlow[sink_11,innode_1] 2
WCcheckFlow[sink_19,innode_2] 0
WCcheckFlow[source_3,innode_4] -1
WCcheckFlow[source_2,innode_7] -1
WCcheckFlow[sink_3,innode_8] 37
